120 150

47
59
51
51
48
51
49
59
44
51
56
52
40
48
58
51
40
51
42
49
59
48
51
52
44
48
54
51
56
48
59
59
52
42
50
52
56
47
43
56
47
53
52
49
49
51
57
42
41
55
49
46
52
44
42
54
58
52
40
59
48
49
60
57
48
59
58
45
55
46
43
54
49
54
47
43
60
57
42
49
57
44
44
57
49
47
50
51
46
49
41
47
59
46
57
44
51
47
58
58
41
59
59
51
54
52
51
44
55
49
44
46
40
55
59
50
60
48
41
42